min: x10; 
m=15; 
/* Constraints */ 
m-1000 b1_10<=0;
y10>=y1;
m-1000 b1_2<=0;
m-1000 b2_10<=0;
y10>=y2;
m-1000 b1_3<=0;
m-1000 b3_10<=0;
y10>=y3;
m-1000 b1_4<=0;
m-1000 b4_10<=0;
y10>=y4;
m-1000 b1_5<=0;
m-1000 b5_10<=0;
y10>=y5;
m-1000 b1_6<=0;
m-1000 b6_10<=0;
y10>=y6;
m-1000 b1_7<=0;
m-1000 b7_10<=0;
y10>=y7;
m-1000 b1_8<=0;
m-1000 b8_10<=0;
y10>=y8;
m-1000 b1_9<=0;
m-1000 b9_10<=0;
y10>=y9;
m-1000 b1_10<=0;
/* 1 */ 
x1>=0; 
y1>=0; 
x1+19 <=500; 
y1+ 7<=20; 
x1+ 19 - 500 + 500b1_2 - x2<=0; 
y1+ 7 - 20 + 20u1_2 - y2<=0; 
x1+ 19 - 500 + 500b1_3 - x3<=0; 
y1+ 7 - 20 + 20u1_3 - y3<=0; 
x1+ 19 - 500 + 500b1_4 - x4<=0; 
y1+ 7 - 20 + 20u1_4 - y4<=0; 
x1+ 19 - 500 + 500b1_5 - x5<=0; 
y1+ 7 - 20 + 20u1_5 - y5<=0; 
x1+ 19 - 500 + 500b1_6 - x6<=0; 
y1+ 7 - 20 + 20u1_6 - y6<=0; 
x1+ 19 - 500 + 500b1_7 - x7<=0; 
y1+ 7 - 20 + 20u1_7 - y7<=0; 
x1+ 19 - 500 + 500b1_8 - x8<=0; 
y1+ 7 - 20 + 20u1_8 - y8<=0; 
x1+ 19 - 500 + 500b1_9 - x9<=0; 
y1+ 7 - 20 + 20u1_9 - y9<=0; 
x1+ 19 - 500 + 500b1_10 - x10<=0; 
y1+ 7 - 20 + 20u1_10 - y10<=0; 
/* 2 */ 
x2>=0; 
y2>=0; 
x2+20 <=500; 
y2+ 7<=20; 
x2+ 20 - 500 + 500b2_1 - x1<=0; 
y2+ 7 - 20 + 20u2_1 - y1<=0; 
x2+ 20 - 500 + 500b2_3 - x3<=0; 
y2+ 7 - 20 + 20u2_3 - y3<=0; 
x2+ 20 - 500 + 500b2_4 - x4<=0; 
y2+ 7 - 20 + 20u2_4 - y4<=0; 
x2+ 20 - 500 + 500b2_5 - x5<=0; 
y2+ 7 - 20 + 20u2_5 - y5<=0; 
x2+ 20 - 500 + 500b2_6 - x6<=0; 
y2+ 7 - 20 + 20u2_6 - y6<=0; 
x2+ 20 - 500 + 500b2_7 - x7<=0; 
y2+ 7 - 20 + 20u2_7 - y7<=0; 
x2+ 20 - 500 + 500b2_8 - x8<=0; 
y2+ 7 - 20 + 20u2_8 - y8<=0; 
x2+ 20 - 500 + 500b2_9 - x9<=0; 
y2+ 7 - 20 + 20u2_9 - y9<=0; 
x2+ 20 - 500 + 500b2_10 - x10<=0; 
y2+ 7 - 20 + 20u2_10 - y10<=0; 
/* 3 */ 
x3>=0; 
y3>=0; 
x3+6 <=500; 
y3+ 6<=20; 
x3+ 6 - 500 + 500b3_1 - x1<=0; 
y3+ 6 - 20 + 20u3_1 - y1<=0; 
x3+ 6 - 500 + 500b3_2 - x2<=0; 
y3+ 6 - 20 + 20u3_2 - y2<=0; 
x3+ 6 - 500 + 500b3_4 - x4<=0; 
y3+ 6 - 20 + 20u3_4 - y4<=0; 
x3+ 6 - 500 + 500b3_5 - x5<=0; 
y3+ 6 - 20 + 20u3_5 - y5<=0; 
x3+ 6 - 500 + 500b3_6 - x6<=0; 
y3+ 6 - 20 + 20u3_6 - y6<=0; 
x3+ 6 - 500 + 500b3_7 - x7<=0; 
y3+ 6 - 20 + 20u3_7 - y7<=0; 
x3+ 6 - 500 + 500b3_8 - x8<=0; 
y3+ 6 - 20 + 20u3_8 - y8<=0; 
x3+ 6 - 500 + 500b3_9 - x9<=0; 
y3+ 6 - 20 + 20u3_9 - y9<=0; 
x3+ 6 - 500 + 500b3_10 - x10<=0; 
y3+ 6 - 20 + 20u3_10 - y10<=0; 
/* 4 */ 
x4>=0; 
y4>=0; 
x4+15 <=500; 
y4+ 6<=20; 
x4+ 15 - 500 + 500b4_1 - x1<=0; 
y4+ 6 - 20 + 20u4_1 - y1<=0; 
x4+ 15 - 500 + 500b4_2 - x2<=0; 
y4+ 6 - 20 + 20u4_2 - y2<=0; 
x4+ 15 - 500 + 500b4_3 - x3<=0; 
y4+ 6 - 20 + 20u4_3 - y3<=0; 
x4+ 15 - 500 + 500b4_5 - x5<=0; 
y4+ 6 - 20 + 20u4_5 - y5<=0; 
x4+ 15 - 500 + 500b4_6 - x6<=0; 
y4+ 6 - 20 + 20u4_6 - y6<=0; 
x4+ 15 - 500 + 500b4_7 - x7<=0; 
y4+ 6 - 20 + 20u4_7 - y7<=0; 
x4+ 15 - 500 + 500b4_8 - x8<=0; 
y4+ 6 - 20 + 20u4_8 - y8<=0; 
x4+ 15 - 500 + 500b4_9 - x9<=0; 
y4+ 6 - 20 + 20u4_9 - y9<=0; 
x4+ 15 - 500 + 500b4_10 - x10<=0; 
y4+ 6 - 20 + 20u4_10 - y10<=0; 
/* 5 */ 
x5>=0; 
y5>=0; 
x5+13 <=500; 
y5+ 5<=20; 
x5+ 13 - 500 + 500b5_1 - x1<=0; 
y5+ 5 - 20 + 20u5_1 - y1<=0; 
x5+ 13 - 500 + 500b5_2 - x2<=0; 
y5+ 5 - 20 + 20u5_2 - y2<=0; 
x5+ 13 - 500 + 500b5_3 - x3<=0; 
y5+ 5 - 20 + 20u5_3 - y3<=0; 
x5+ 13 - 500 + 500b5_4 - x4<=0; 
y5+ 5 - 20 + 20u5_4 - y4<=0; 
x5+ 13 - 500 + 500b5_6 - x6<=0; 
y5+ 5 - 20 + 20u5_6 - y6<=0; 
x5+ 13 - 500 + 500b5_7 - x7<=0; 
y5+ 5 - 20 + 20u5_7 - y7<=0; 
x5+ 13 - 500 + 500b5_8 - x8<=0; 
y5+ 5 - 20 + 20u5_8 - y8<=0; 
x5+ 13 - 500 + 500b5_9 - x9<=0; 
y5+ 5 - 20 + 20u5_9 - y9<=0; 
x5+ 13 - 500 + 500b5_10 - x10<=0; 
y5+ 5 - 20 + 20u5_10 - y10<=0; 
/* 6 */ 
x6>=0; 
y6>=0; 
x6+20 <=500; 
y6+ 3<=20; 
x6+ 20 - 500 + 500b6_1 - x1<=0; 
y6+ 3 - 20 + 20u6_1 - y1<=0; 
x6+ 20 - 500 + 500b6_2 - x2<=0; 
y6+ 3 - 20 + 20u6_2 - y2<=0; 
x6+ 20 - 500 + 500b6_3 - x3<=0; 
y6+ 3 - 20 + 20u6_3 - y3<=0; 
x6+ 20 - 500 + 500b6_4 - x4<=0; 
y6+ 3 - 20 + 20u6_4 - y4<=0; 
x6+ 20 - 500 + 500b6_5 - x5<=0; 
y6+ 3 - 20 + 20u6_5 - y5<=0; 
x6+ 20 - 500 + 500b6_7 - x7<=0; 
y6+ 3 - 20 + 20u6_7 - y7<=0; 
x6+ 20 - 500 + 500b6_8 - x8<=0; 
y6+ 3 - 20 + 20u6_8 - y8<=0; 
x6+ 20 - 500 + 500b6_9 - x9<=0; 
y6+ 3 - 20 + 20u6_9 - y9<=0; 
x6+ 20 - 500 + 500b6_10 - x10<=0; 
y6+ 3 - 20 + 20u6_10 - y10<=0; 
/* 7 */ 
x7>=0; 
y7>=0; 
x7+17 <=500; 
y7+ 6<=20; 
x7+ 17 - 500 + 500b7_1 - x1<=0; 
y7+ 6 - 20 + 20u7_1 - y1<=0; 
x7+ 17 - 500 + 500b7_2 - x2<=0; 
y7+ 6 - 20 + 20u7_2 - y2<=0; 
x7+ 17 - 500 + 500b7_3 - x3<=0; 
y7+ 6 - 20 + 20u7_3 - y3<=0; 
x7+ 17 - 500 + 500b7_4 - x4<=0; 
y7+ 6 - 20 + 20u7_4 - y4<=0; 
x7+ 17 - 500 + 500b7_5 - x5<=0; 
y7+ 6 - 20 + 20u7_5 - y5<=0; 
x7+ 17 - 500 + 500b7_6 - x6<=0; 
y7+ 6 - 20 + 20u7_6 - y6<=0; 
x7+ 17 - 500 + 500b7_8 - x8<=0; 
y7+ 6 - 20 + 20u7_8 - y8<=0; 
x7+ 17 - 500 + 500b7_9 - x9<=0; 
y7+ 6 - 20 + 20u7_9 - y9<=0; 
x7+ 17 - 500 + 500b7_10 - x10<=0; 
y7+ 6 - 20 + 20u7_10 - y10<=0; 
/* 8 */ 
x8>=0; 
y8>=0; 
x8+19 <=500; 
y8+ 7<=20; 
x8+ 19 - 500 + 500b8_1 - x1<=0; 
y8+ 7 - 20 + 20u8_1 - y1<=0; 
x8+ 19 - 500 + 500b8_2 - x2<=0; 
y8+ 7 - 20 + 20u8_2 - y2<=0; 
x8+ 19 - 500 + 500b8_3 - x3<=0; 
y8+ 7 - 20 + 20u8_3 - y3<=0; 
x8+ 19 - 500 + 500b8_4 - x4<=0; 
y8+ 7 - 20 + 20u8_4 - y4<=0; 
x8+ 19 - 500 + 500b8_5 - x5<=0; 
y8+ 7 - 20 + 20u8_5 - y5<=0; 
x8+ 19 - 500 + 500b8_6 - x6<=0; 
y8+ 7 - 20 + 20u8_6 - y6<=0; 
x8+ 19 - 500 + 500b8_7 - x7<=0; 
y8+ 7 - 20 + 20u8_7 - y7<=0; 
x8+ 19 - 500 + 500b8_9 - x9<=0; 
y8+ 7 - 20 + 20u8_9 - y9<=0; 
x8+ 19 - 500 + 500b8_10 - x10<=0; 
y8+ 7 - 20 + 20u8_10 - y10<=0; 
/* 9 */ 
x9>=0; 
y9>=0; 
x9+5 <=500; 
y9+ 5<=20; 
x9+ 5 - 500 + 500b9_1 - x1<=0; 
y9+ 5 - 20 + 20u9_1 - y1<=0; 
x9+ 5 - 500 + 500b9_2 - x2<=0; 
y9+ 5 - 20 + 20u9_2 - y2<=0; 
x9+ 5 - 500 + 500b9_3 - x3<=0; 
y9+ 5 - 20 + 20u9_3 - y3<=0; 
x9+ 5 - 500 + 500b9_4 - x4<=0; 
y9+ 5 - 20 + 20u9_4 - y4<=0; 
x9+ 5 - 500 + 500b9_5 - x5<=0; 
y9+ 5 - 20 + 20u9_5 - y5<=0; 
x9+ 5 - 500 + 500b9_6 - x6<=0; 
y9+ 5 - 20 + 20u9_6 - y6<=0; 
x9+ 5 - 500 + 500b9_7 - x7<=0; 
y9+ 5 - 20 + 20u9_7 - y7<=0; 
x9+ 5 - 500 + 500b9_8 - x8<=0; 
y9+ 5 - 20 + 20u9_8 - y8<=0; 
x9+ 5 - 500 + 500b9_10 - x10<=0; 
y9+ 5 - 20 + 20u9_10 - y10<=0; 
/* 10 */ 
x10>=0; 
y10>=0; 
x10+1 <=500; 
y10+ 1<=20; 
x10+ 1 - 500 + 500b10_1 - x1<=0; 
y10+ 1 - 20 + 20u10_1 - y1<=0; 
x10+ 1 - 500 + 500b10_2 - x2<=0; 
y10+ 1 - 20 + 20u10_2 - y2<=0; 
x10+ 1 - 500 + 500b10_3 - x3<=0; 
y10+ 1 - 20 + 20u10_3 - y3<=0; 
x10+ 1 - 500 + 500b10_4 - x4<=0; 
y10+ 1 - 20 + 20u10_4 - y4<=0; 
x10+ 1 - 500 + 500b10_5 - x5<=0; 
y10+ 1 - 20 + 20u10_5 - y5<=0; 
x10+ 1 - 500 + 500b10_6 - x6<=0; 
y10+ 1 - 20 + 20u10_6 - y6<=0; 
x10+ 1 - 500 + 500b10_7 - x7<=0; 
y10+ 1 - 20 + 20u10_7 - y7<=0; 
x10+ 1 - 500 + 500b10_8 - x8<=0; 
y10+ 1 - 20 + 20u10_8 - y8<=0; 
x10+ 1 - 500 + 500b10_9 - x9<=0; 
y10+ 1 - 20 + 20u10_9 - y9<=0; 
u1_2+u2_1<=1; 
b1_2+b2_1<=1; 
b1_2+b2_1+u1_2+u2_1>=1; 
u1_3+u3_1<=1; 
b1_3+b3_1<=1; 
b1_3+b3_1+u1_3+u3_1>=1; 
u1_4+u4_1<=1; 
b1_4+b4_1<=1; 
b1_4+b4_1+u1_4+u4_1>=1; 
u1_5+u5_1<=1; 
b1_5+b5_1<=1; 
b1_5+b5_1+u1_5+u5_1>=1; 
u1_6+u6_1<=1; 
b1_6+b6_1<=1; 
b1_6+b6_1+u1_6+u6_1>=1; 
u1_7+u7_1<=1; 
b1_7+b7_1<=1; 
b1_7+b7_1+u1_7+u7_1>=1; 
u1_8+u8_1<=1; 
b1_8+b8_1<=1; 
b1_8+b8_1+u1_8+u8_1>=1; 
u1_9+u9_1<=1; 
b1_9+b9_1<=1; 
b1_9+b9_1+u1_9+u9_1>=1; 
u1_10+u10_1<=1; 
b1_10+b10_1<=1; 
b1_10+b10_1+u1_10+u10_1>=1; 
u2_1+u1_2<=1; 
b2_1+b1_2<=1; 
b2_1+b1_2+u2_1+u1_2>=1; 
u2_3+u3_2<=1; 
b2_3+b3_2<=1; 
b2_3+b3_2+u2_3+u3_2>=1; 
u2_4+u4_2<=1; 
b2_4+b4_2<=1; 
b2_4+b4_2+u2_4+u4_2>=1; 
u2_5+u5_2<=1; 
b2_5+b5_2<=1; 
b2_5+b5_2+u2_5+u5_2>=1; 
u2_6+u6_2<=1; 
b2_6+b6_2<=1; 
b2_6+b6_2+u2_6+u6_2>=1; 
u2_7+u7_2<=1; 
b2_7+b7_2<=1; 
b2_7+b7_2+u2_7+u7_2>=1; 
u2_8+u8_2<=1; 
b2_8+b8_2<=1; 
b2_8+b8_2+u2_8+u8_2>=1; 
u2_9+u9_2<=1; 
b2_9+b9_2<=1; 
b2_9+b9_2+u2_9+u9_2>=1; 
u2_10+u10_2<=1; 
b2_10+b10_2<=1; 
b2_10+b10_2+u2_10+u10_2>=1; 
u3_1+u1_3<=1; 
b3_1+b1_3<=1; 
b3_1+b1_3+u3_1+u1_3>=1; 
u3_2+u2_3<=1; 
b3_2+b2_3<=1; 
b3_2+b2_3+u3_2+u2_3>=1; 
u3_4+u4_3<=1; 
b3_4+b4_3<=1; 
b3_4+b4_3+u3_4+u4_3>=1; 
u3_5+u5_3<=1; 
b3_5+b5_3<=1; 
b3_5+b5_3+u3_5+u5_3>=1; 
u3_6+u6_3<=1; 
b3_6+b6_3<=1; 
b3_6+b6_3+u3_6+u6_3>=1; 
u3_7+u7_3<=1; 
b3_7+b7_3<=1; 
b3_7+b7_3+u3_7+u7_3>=1; 
u3_8+u8_3<=1; 
b3_8+b8_3<=1; 
b3_8+b8_3+u3_8+u8_3>=1; 
u3_9+u9_3<=1; 
b3_9+b9_3<=1; 
b3_9+b9_3+u3_9+u9_3>=1; 
u3_10+u10_3<=1; 
b3_10+b10_3<=1; 
b3_10+b10_3+u3_10+u10_3>=1; 
u4_1+u1_4<=1; 
b4_1+b1_4<=1; 
b4_1+b1_4+u4_1+u1_4>=1; 
u4_2+u2_4<=1; 
b4_2+b2_4<=1; 
b4_2+b2_4+u4_2+u2_4>=1; 
u4_3+u3_4<=1; 
b4_3+b3_4<=1; 
b4_3+b3_4+u4_3+u3_4>=1; 
u4_5+u5_4<=1; 
b4_5+b5_4<=1; 
b4_5+b5_4+u4_5+u5_4>=1; 
u4_6+u6_4<=1; 
b4_6+b6_4<=1; 
b4_6+b6_4+u4_6+u6_4>=1; 
u4_7+u7_4<=1; 
b4_7+b7_4<=1; 
b4_7+b7_4+u4_7+u7_4>=1; 
u4_8+u8_4<=1; 
b4_8+b8_4<=1; 
b4_8+b8_4+u4_8+u8_4>=1; 
u4_9+u9_4<=1; 
b4_9+b9_4<=1; 
b4_9+b9_4+u4_9+u9_4>=1; 
u4_10+u10_4<=1; 
b4_10+b10_4<=1; 
b4_10+b10_4+u4_10+u10_4>=1; 
u5_1+u1_5<=1; 
b5_1+b1_5<=1; 
b5_1+b1_5+u5_1+u1_5>=1; 
u5_2+u2_5<=1; 
b5_2+b2_5<=1; 
b5_2+b2_5+u5_2+u2_5>=1; 
u5_3+u3_5<=1; 
b5_3+b3_5<=1; 
b5_3+b3_5+u5_3+u3_5>=1; 
u5_4+u4_5<=1; 
b5_4+b4_5<=1; 
b5_4+b4_5+u5_4+u4_5>=1; 
u5_6+u6_5<=1; 
b5_6+b6_5<=1; 
b5_6+b6_5+u5_6+u6_5>=1; 
u5_7+u7_5<=1; 
b5_7+b7_5<=1; 
b5_7+b7_5+u5_7+u7_5>=1; 
u5_8+u8_5<=1; 
b5_8+b8_5<=1; 
b5_8+b8_5+u5_8+u8_5>=1; 
u5_9+u9_5<=1; 
b5_9+b9_5<=1; 
b5_9+b9_5+u5_9+u9_5>=1; 
u5_10+u10_5<=1; 
b5_10+b10_5<=1; 
b5_10+b10_5+u5_10+u10_5>=1; 
u6_1+u1_6<=1; 
b6_1+b1_6<=1; 
b6_1+b1_6+u6_1+u1_6>=1; 
u6_2+u2_6<=1; 
b6_2+b2_6<=1; 
b6_2+b2_6+u6_2+u2_6>=1; 
u6_3+u3_6<=1; 
b6_3+b3_6<=1; 
b6_3+b3_6+u6_3+u3_6>=1; 
u6_4+u4_6<=1; 
b6_4+b4_6<=1; 
b6_4+b4_6+u6_4+u4_6>=1; 
u6_5+u5_6<=1; 
b6_5+b5_6<=1; 
b6_5+b5_6+u6_5+u5_6>=1; 
u6_7+u7_6<=1; 
b6_7+b7_6<=1; 
b6_7+b7_6+u6_7+u7_6>=1; 
u6_8+u8_6<=1; 
b6_8+b8_6<=1; 
b6_8+b8_6+u6_8+u8_6>=1; 
u6_9+u9_6<=1; 
b6_9+b9_6<=1; 
b6_9+b9_6+u6_9+u9_6>=1; 
u6_10+u10_6<=1; 
b6_10+b10_6<=1; 
b6_10+b10_6+u6_10+u10_6>=1; 
u7_1+u1_7<=1; 
b7_1+b1_7<=1; 
b7_1+b1_7+u7_1+u1_7>=1; 
u7_2+u2_7<=1; 
b7_2+b2_7<=1; 
b7_2+b2_7+u7_2+u2_7>=1; 
u7_3+u3_7<=1; 
b7_3+b3_7<=1; 
b7_3+b3_7+u7_3+u3_7>=1; 
u7_4+u4_7<=1; 
b7_4+b4_7<=1; 
b7_4+b4_7+u7_4+u4_7>=1; 
u7_5+u5_7<=1; 
b7_5+b5_7<=1; 
b7_5+b5_7+u7_5+u5_7>=1; 
u7_6+u6_7<=1; 
b7_6+b6_7<=1; 
b7_6+b6_7+u7_6+u6_7>=1; 
u7_8+u8_7<=1; 
b7_8+b8_7<=1; 
b7_8+b8_7+u7_8+u8_7>=1; 
u7_9+u9_7<=1; 
b7_9+b9_7<=1; 
b7_9+b9_7+u7_9+u9_7>=1; 
u7_10+u10_7<=1; 
b7_10+b10_7<=1; 
b7_10+b10_7+u7_10+u10_7>=1; 
u8_1+u1_8<=1; 
b8_1+b1_8<=1; 
b8_1+b1_8+u8_1+u1_8>=1; 
u8_2+u2_8<=1; 
b8_2+b2_8<=1; 
b8_2+b2_8+u8_2+u2_8>=1; 
u8_3+u3_8<=1; 
b8_3+b3_8<=1; 
b8_3+b3_8+u8_3+u3_8>=1; 
u8_4+u4_8<=1; 
b8_4+b4_8<=1; 
b8_4+b4_8+u8_4+u4_8>=1; 
u8_5+u5_8<=1; 
b8_5+b5_8<=1; 
b8_5+b5_8+u8_5+u5_8>=1; 
u8_6+u6_8<=1; 
b8_6+b6_8<=1; 
b8_6+b6_8+u8_6+u6_8>=1; 
u8_7+u7_8<=1; 
b8_7+b7_8<=1; 
b8_7+b7_8+u8_7+u7_8>=1; 
u8_9+u9_8<=1; 
b8_9+b9_8<=1; 
b8_9+b9_8+u8_9+u9_8>=1; 
u8_10+u10_8<=1; 
b8_10+b10_8<=1; 
b8_10+b10_8+u8_10+u10_8>=1; 
u9_1+u1_9<=1; 
b9_1+b1_9<=1; 
b9_1+b1_9+u9_1+u1_9>=1; 
u9_2+u2_9<=1; 
b9_2+b2_9<=1; 
b9_2+b2_9+u9_2+u2_9>=1; 
u9_3+u3_9<=1; 
b9_3+b3_9<=1; 
b9_3+b3_9+u9_3+u3_9>=1; 
u9_4+u4_9<=1; 
b9_4+b4_9<=1; 
b9_4+b4_9+u9_4+u4_9>=1; 
u9_5+u5_9<=1; 
b9_5+b5_9<=1; 
b9_5+b5_9+u9_5+u5_9>=1; 
u9_6+u6_9<=1; 
b9_6+b6_9<=1; 
b9_6+b6_9+u9_6+u6_9>=1; 
u9_7+u7_9<=1; 
b9_7+b7_9<=1; 
b9_7+b7_9+u9_7+u7_9>=1; 
u9_8+u8_9<=1; 
b9_8+b8_9<=1; 
b9_8+b8_9+u9_8+u8_9>=1; 
u9_10+u10_9<=1; 
b9_10+b10_9<=1; 
b9_10+b10_9+u9_10+u10_9>=1; 
u10_1+u1_10<=1; 
b10_1+b1_10<=1; 
b10_1+b1_10+u10_1+u1_10>=1; 
u10_2+u2_10<=1; 
b10_2+b2_10<=1; 
b10_2+b2_10+u10_2+u2_10>=1; 
u10_3+u3_10<=1; 
b10_3+b3_10<=1; 
b10_3+b3_10+u10_3+u3_10>=1; 
u10_4+u4_10<=1; 
b10_4+b4_10<=1; 
b10_4+b4_10+u10_4+u4_10>=1; 
u10_5+u5_10<=1; 
b10_5+b5_10<=1; 
b10_5+b5_10+u10_5+u5_10>=1; 
u10_6+u6_10<=1; 
b10_6+b6_10<=1; 
b10_6+b6_10+u10_6+u6_10>=1; 
u10_7+u7_10<=1; 
b10_7+b7_10<=1; 
b10_7+b7_10+u10_7+u7_10>=1; 
u10_8+u8_10<=1; 
b10_8+b8_10<=1; 
b10_8+b8_10+u10_8+u8_10>=1; 
u10_9+u9_10<=1; 
b10_9+b9_10<=1; 
b10_9+b9_10+u10_9+u9_10>=1; 
int x1,x2,x3,x4,x5,x6,x7,x8,x9,x10,m,M; 
int y1,y2,y3,y4,y5,y6,y7,y8,y9,y10; 
bin u1_2,u1_3,u1_4,u1_5,u1_6,u1_7,u1_8,u1_9,u1_10,u2_1,u2_3,u2_4,u2_5,u2_6,u2_7,u2_8,u2_9,u2_10,u3_1,u3_2,u3_4,u3_5,u3_6,u3_7,u3_8,u3_9,u3_10,u4_1,u4_2,u4_3,u4_5,u4_6,u4_7,u4_8,u4_9,u4_10,u5_1,u5_2,u5_3,u5_4,u5_6,u5_7,u5_8,u5_9,u5_10,u6_1,u6_2,u6_3,u6_4,u6_5,u6_7,u6_8,u6_9,u6_10,u7_1,u7_2,u7_3,u7_4,u7_5,u7_6,u7_8,u7_9,u7_10,u8_1,u8_2,u8_3,u8_4,u8_5,u8_6,u8_7,u8_9,u8_10,u9_1,u9_2,u9_3,u9_4,u9_5,u9_6,u9_7,u9_8,u9_10,u10_1,u10_2,u10_3,u10_4,u10_5,u10_6,u10_7,u10_8,u10_9; 
bin b1_2,b1_3,b1_4,b1_5,b1_6,b1_7,b1_8,b1_9,b1_10,b2_1,b2_3,b2_4,b2_5,b2_6,b2_7,b2_8,b2_9,b2_10,b3_1,b3_2,b3_4,b3_5,b3_6,b3_7,b3_8,b3_9,b3_10,b4_1,b4_2,b4_3,b4_5,b4_6,b4_7,b4_8,b4_9,b4_10,b5_1,b5_2,b5_3,b5_4,b5_6,b5_7,b5_8,b5_9,b5_10,b6_1,b6_2,b6_3,b6_4,b6_5,b6_7,b6_8,b6_9,b6_10,b7_1,b7_2,b7_3,b7_4,b7_5,b7_6,b7_8,b7_9,b7_10,b8_1,b8_2,b8_3,b8_4,b8_5,b8_6,b8_7,b8_9,b8_10,b9_1,b9_2,b9_3,b9_4,b9_5,b9_6,b9_7,b9_8,b9_10,b10_1,b10_2,b10_3,b10_4,b10_5,b10_6,b10_7,b10_8,b10_9; 
